Maximize
  0 x0 + 40 x1 + 0 x2 + 26 x3 + 0 x4 + 24 x5 - 2 x6 + 0 x7 - x8 + 0 x9
   + 38 x10 + 0 x11 - 35 x12 + 0 x13 + 4 x14 + 0 x15 + 6 x16 + 0 x17
   + 0 x18 + 0 x19 + 44 x20 + 37 x21 + 0 x22 + 0 x23 + 22 x24 - 39 x25
   + 0 x26 + 0 x27 + 0 x28 + 0 x29 + 0 x30 + 4 x31 - 21 x32 - 27 x33
   + 0 x34 + 0 x35 + 0 x36 - 45 x37 + 0 x38 + 0 x39 + 0 x40 + 0 x41 + 0 x42
   + 0 x43 + 0 x44 + 27 x45 + 0 x46 + 0 x47 + 0 x48 + 0 x49 + 0 x50 + 0 x51
   + 6 x52 + 0 x53 + 0 x54 + 0 x55 + 0 x56 + 5 x57 + 0 x58 + 0 x59 + 0 x60
   + 0 x61 + 0 x62 + 0 x63 + 0 x64 + 0 x65 + 16 x66 + 0 x67 + 0 x68 + 0 x69
   + [ 62 x0 * x1 - 4 x0 * x5 - 40 x0 * x14 + 8 x0 * x21 - 70 x0 * x24
   + 68 x0 * x28 + 96 x0 * x32 + 36 x0 * x37 - 86 x0 * x41 - 94 x0 * x42
   + 68 x0 * x43 - 30 x0 * x44 - 2 x0 * x45 - 14 x0 * x51 + 26 x0 * x57
   - 98 x0 * x59 + 78 x0 * x61 + 72 x0 * x62 - 88 x0 * x67 - 88 x1 * x3
   + 50 x1 * x7 + 40 x1 * x16 - 82 x1 * x32 + 72 x1 * x34 + 84 x1 * x38
   + 14 x1 * x46 - 82 x1 * x61 - 46 x1 * x62 + 24 x1 * x68 + 38 x1 * x69
   - 39 x2 ^2 - 42 x2 * x11 + 48 x2 * x13 + 36 x2 * x14 + 36 x2 * x19
   - 44 x2 * x25 - 26 x2 * x28 + 78 x2 * x33 - 56 x2 * x35 + 42 x2 * x38
   - 4 x2 * x45 - 42 x2 * x57 - 34 x3 * x4 + 44 x3 * x9 + 54 x3 * x15
   + 26 x3 * x17 + 64 x3 * x22 - 32 x3 * x23 + 6 x3 * x24 - 46 x3 * x26
   - 98 x3 * x27 + 70 x3 * x29 + 24 x3 * x30 + 80 x3 * x37 - 10 x3 * x38
   + 2 x3 * x42 - 70 x3 * x45 + 48 x3 * x48 - 82 x3 * x60 + 86 x3 * x61
   - 34 x4 * x10 + 78 x4 * x21 + 6 x4 * x24 - 28 x4 * x26 + 28 x4 * x27
   + 66 x4 * x29 + 8 x4 * x30 - 44 x4 * x34 + 86 x4 * x42 + 44 x4 * x43
   - 48 x4 * x48 + 22 x4 * x49 + 26 x4 * x53 - 38 x4 * x63 + 82 x4 * x64
   + 32 x4 * x65 + 22 x5 * x8 + 48 x5 * x9 - 24 x5 * x11 - 60 x5 * x13
   - 90 x5 * x16 + 66 x5 * x17 - 78 x5 * x19 + 32 x5 * x26 + 84 x5 * x31
   - 48 x5 * x32 + 8 x5 * x34 + 6 x5 * x35 - 34 x5 * x36 - 76 x5 * x38
   + 82 x5 * x41 + 40 x5 * x42 + 68 x5 * x45 - 2 x5 * x47 + 28 x5 * x50
   + 20 x5 * x62 - 42 x5 * x65 - 14 x5 * x66 - 60 x5 * x67 - 52 x6 * x19
   - 56 x6 * x20 + 78 x6 * x21 - 68 x6 * x24 - 28 x6 * x27 + 16 x6 * x28
   + 30 x6 * x38 + 62 x6 * x43 + 34 x6 * x45 + 86 x6 * x49 + 90 x6 * x50
   + 30 x6 * x52 + 88 x6 * x54 + 80 x6 * x57 + 70 x6 * x58 - 36 x6 * x59
   + 74 x6 * x60 - 62 x6 * x67 + 24 x7 ^2 + 36 x7 * x8 - 64 x7 * x12
   + 46 x7 * x13 - 38 x7 * x14 - 28 x7 * x16 + 28 x7 * x22 + 8 x7 * x23
   - 94 x7 * x27 - 72 x7 * x28 + 38 x7 * x32 - 70 x7 * x33 + 46 x7 * x38
   - 80 x7 * x39 + 40 x7 * x42 + 74 x7 * x46 - 48 x7 * x48 - 90 x7 * x49
   + 64 x7 * x50 + 10 x7 * x56 + 32 x7 * x59 + 54 x7 * x67 + 12 x7 * x68
   - 98 x8 * x11 + 70 x8 * x12 - 46 x8 * x16 + 82 x8 * x20 - 18 x8 * x27
   + 28 x8 * x33 - 88 x8 * x34 + 48 x8 * x36 - 84 x8 * x39 - 36 x8 * x44
   + 50 x8 * x50 + 62 x8 * x53 - 96 x8 * x57 + 40 x8 * x60 - 24 x8 * x67
   + 16 x8 * x68 - 94 x9 * x16 - 46 x9 * x17 - 90 x9 * x18 - 28 x9 * x21
   - 60 x9 * x25 - 68 x9 * x31 - 24 x9 * x42 - 74 x9 * x53 + 72 x9 * x59
   - 60 x9 * x64 + 88 x9 * x65 + 32 x10 * x11 + 4 x10 * x13 - 82 x10 * x16
   + 50 x10 * x20 + 84 x10 * x22 + 88 x10 * x25 - 78 x10 * x29
   + 22 x10 * x34 + 64 x10 * x36 + 36 x10 * x38 + 14 x10 * x43
   + 70 x10 * x46 + 66 x10 * x50 - 10 x10 * x56 - 52 x10 * x61
   - 38 x10 * x63 + 60 x10 * x65 - 36 x10 * x66 + 19 x11 ^2 - 94 x11 * x13
   + 56 x11 * x15 - 74 x11 * x17 + 18 x11 * x21 + 66 x11 * x24
   - 84 x11 * x27 - 86 x11 * x31 + 36 x11 * x35 - 16 x11 * x36
   - 96 x11 * x37 - 18 x11 * x38 - 68 x11 * x42 + 44 x11 * x45
   + 66 x11 * x46 - 86 x11 * x47 + 36 x11 * x59 - 92 x11 * x63
   + 16 x11 * x64 + 28 x11 * x65 + 36 x11 * x69 + 5 x12 ^2 - 88 x12 * x18
   - 66 x12 * x21 + 60 x12 * x22 + 80 x12 * x23 - 32 x12 * x31
   - 96 x12 * x35 + 76 x12 * x38 - 22 x12 * x40 + 52 x12 * x43
   - 74 x12 * x45 + 68 x12 * x47 + 4 x12 * x48 + 30 x12 * x50
   - 32 x12 * x54 + 38 x12 * x55 + 92 x12 * x57 - 98 x12 * x69
   + 8 x13 * x15 - 6 x13 * x16 - 78 x13 * x17 - 26 x13 * x19 - 66 x13 * x23
   + 96 x13 * x24 + 60 x13 * x27 - 8 x13 * x38 + 10 x13 * x39 + 2 x13 * x40
   - 48 x13 * x47 + 66 x13 * x52 + 10 x13 * x64 + 96 x13 * x65
   - 84 x13 * x67 - 62 x14 * x17 + 72 x14 * x22 - 86 x14 * x33
   + 70 x14 * x34 + 30 x14 * x43 - 80 x14 * x46 + 38 x14 * x51
   - 98 x14 * x54 - 78 x14 * x58 - 16 x14 * x63 + 48 x15 ^2 + 14 x15 * x17
   + 30 x15 * x20 + 54 x15 * x23 + 38 x15 * x26 + 56 x15 * x29
   + 8 x15 * x31 + 4 x15 * x32 - 96 x15 * x42 + 68 x15 * x47 - 24 x15 * x51
   + 50 x15 * x56 + 26 x15 * x61 - 14 x15 * x65 + 56 x16 * x17
   + 80 x16 * x18 - 60 x16 * x22 - 60 x16 * x26 - 96 x16 * x30
   + 98 x16 * x31 + 4 x16 * x34 + 56 x16 * x37 + 12 x16 * x43
   + 70 x16 * x44 + 36 x16 * x51 + 96 x16 * x55 + 80 x16 * x59
   + 32 x16 * x62 + 42 x16 * x67 + 38 x17 * x19 + 94 x17 * x23
   - 30 x17 * x28 - 6 x17 * x32 + 8 x17 * x34 + 70 x17 * x49 + 88 x17 * x50
   + 34 x17 * x53 - 76 x17 * x54 - 84 x17 * x55 - 20 x17 * x59
   - 78 x17 * x60 - 2 x17 * x64 - 16 x17 * x65 - 64 x17 * x66
   + 34 x17 * x68 - 4 x18 * x19 + 58 x18 * x21 - 78 x18 * x22
   + 60 x18 * x23 - 84 x18 * x27 + 6 x18 * x28 - 44 x18 * x31
   + 26 x18 * x35 + 86 x18 * x36 - 94 x18 * x38 - 66 x18 * x39
   + 26 x18 * x40 - 80 x18 * x50 - 88 x18 * x57 - 62 x18 * x61
   + 88 x18 * x64 + 64 x18 * x68 - 82 x18 * x69 - 4 x19 ^2 - 90 x19 * x28
   + 52 x19 * x30 + 10 x19 * x40 + 22 x19 * x43 + 94 x19 * x49
   + 98 x19 * x51 - 48 x19 * x57 + 56 x19 * x59 + 52 x19 * x64
   - 92 x19 * x66 + 16 x19 * x67 - 34 x19 * x68 - 84 x20 * x22
   - 88 x20 * x34 + 88 x20 * x38 + 82 x20 * x39 - 34 x20 * x41
   - 36 x20 * x53 + 20 x20 * x59 - 4 x20 * x60 + 66 x20 * x61 - 2 x20 * x64
   - 76 x21 * x25 - 10 x21 * x26 + 30 x21 * x27 - 38 x21 * x28
   + 30 x21 * x45 + 12 x21 * x46 - 22 x21 * x47 - 56 x21 * x48
   + 6 x21 * x50 + 2 x21 * x52 - 9 x22 ^2 + 28 x22 * x24 - 94 x22 * x31
   - 4 x22 * x35 - 90 x22 * x37 + 82 x22 * x39 - 2 x22 * x42 - 92 x22 * x46
   + 40 x22 * x51 - 44 x22 * x52 + 2 x22 * x53 - 98 x22 * x56 + 2 x22 * x60
   - 48 x22 * x63 + 38 x22 * x67 - 66 x22 * x69 - 34 x23 * x27
   - 22 x23 * x30 - 56 x23 * x31 - 4 x23 * x34 - 26 x23 * x36
   + 10 x23 * x39 + 4 x23 * x44 + 48 x23 * x47 - 66 x23 * x48
   - 16 x23 * x52 - 12 x23 * x54 - 68 x23 * x57 - 28 x23 * x58
   + 36 x23 * x60 + 58 x23 * x63 + 88 x24 * x25 - 64 x24 * x31
   + 92 x24 * x34 - 68 x24 * x46 - 62 x24 * x53 - 32 x24 * x54
   - 66 x24 * x60 - 38 x24 * x62 - 40 x24 * x64 - 28 x25 * x27
   - 46 x25 * x34 + 92 x25 * x35 - 44 x25 * x37 - 80 x25 * x41
   + 58 x25 * x46 - 46 x25 * x49 + 56 x25 * x57 + 54 x25 * x60
   + 88 x25 * x64 - 4 x25 * x67 + 78 x25 * x69 - 78 x26 * x28
   - 22 x26 * x30 - 96 x26 * x32 - 78 x26 * x34 - 64 x26 * x43
   - 46 x26 * x44 + 72 x26 * x53 + 70 x26 * x54 + 54 x26 * x55
   - 68 x26 * x58 + 98 x26 * x60 - 24 x27 * x34 - 2 x27 * x41
   + 46 x27 * x52 + 80 x27 * x58 + 46 x27 * x61 - 92 x28 * x29
   + 70 x28 * x38 - 70 x28 * x40 - 16 x28 * x42 + 48 x28 * x45
   + 46 x28 * x55 - 36 x28 * x60 - 6 x28 * x61 - 24 x28 * x69
   + 24 x29 * x30 - 62 x29 * x32 - 40 x29 * x48 - 64 x29 * x49
   + 60 x29 * x67 + 25 x30 ^2 + 38 x30 * x32 + 30 x30 * x34 + 40 x30 * x41
   + 32 x30 * x46 + 20 x30 * x54 - 10 x30 * x56 - 28 x30 * x58
   + 60 x30 * x62 + 12 x30 * x66 - 84 x30 * x69 + 26 x31 * x33
   + 80 x31 * x34 + 60 x31 * x47 + 72 x31 * x48 + 22 x31 * x53
   + 54 x31 * x54 + 34 x31 * x55 + 60 x31 * x57 + 44 x31 * x61
   + 54 x31 * x63 + 8 x31 * x66 + 40 x31 * x68 + 46 x32 * x36
   + 92 x32 * x45 - 12 x32 * x48 - 24 x32 * x49 + 94 x32 * x51
   + 8 x32 * x55 + 46 x32 * x64 + 48 x33 * x34 - 2 x33 * x35 + 96 x33 * x36
   + 30 x33 * x38 + 36 x33 * x41 + 34 x33 * x48 + 64 x33 * x53
   + 72 x33 * x54 + 82 x33 * x66 + 12 x33 * x68 + 92 x34 * x35
   + 74 x34 * x45 + 30 x34 * x48 - 56 x34 * x50 - 12 x34 * x55
   - 12 x34 * x66 - 80 x35 * x39 + 80 x35 * x49 - 22 x35 * x55
   - 26 x35 * x60 + 88 x35 * x69 - 44 x36 * x41 + 68 x36 * x44
   - 58 x36 * x45 - 14 x36 * x47 - 62 x36 * x53 - 50 x36 * x54
   + 52 x36 * x55 + 22 x36 * x56 - 78 x36 * x63 - 28 x36 * x64
   + 30 x36 * x66 - 96 x36 * x68 + 36 x36 * x69 - 90 x37 * x41
   - 82 x37 * x43 - 10 x37 * x45 - 24 x37 * x46 + 28 x37 * x48
   - 74 x37 * x50 - 24 x37 * x58 - 86 x37 * x61 - 28 x37 * x65 + 21 x38 ^2
   - 18 x38 * x39 - 72 x38 * x41 + 94 x38 * x43 + 38 x38 * x45
   - 74 x38 * x56 - 18 x38 * x57 - 40 x38 * x58 + 54 x38 * x59
   - 54 x38 * x61 - 14 x38 * x65 + 90 x38 * x66 - 46 x39 * x43
   - 10 x39 * x50 - 68 x39 * x51 - 20 x39 * x55 + 10 x39 * x58
   - 88 x39 * x60 - 68 x39 * x68 + 2 x40 * x49 + 86 x40 * x53
   + 62 x40 * x55 - 96 x40 * x57 + 34 x40 * x60 + 92 x40 * x65
   + 36 x40 * x66 + 80 x41 * x43 + 30 x41 * x45 - 4 x41 * x46
   + 76 x41 * x53 - 64 x41 * x57 - 88 x41 * x60 + 30 x41 * x66
   + 76 x41 * x68 + 68 x42 * x43 + 72 x42 * x45 + 76 x42 * x46
   + 32 x42 * x55 - 14 x42 * x64 - 98 x42 * x67 - 26 x42 * x69 + 25 x43 ^2
   - 96 x43 * x45 + 68 x43 * x47 - 42 x43 * x49 - 26 x43 * x64
   + 28 x43 * x65 + 46 x43 * x67 + 14 x43 * x68 - 17 x44 ^2 - 24 x44 * x45
   - 28 x44 * x49 - 26 x44 * x51 - 39 x45 ^2 + 8 x45 * x49 - 64 x45 * x55
   + 16 x45 * x65 - 78 x46 * x51 + 8 x46 * x58 + 22 x46 * x61
   + 46 x46 * x63 + 78 x47 * x49 + 88 x47 * x58 - 68 x47 * x65
   - 22 x47 * x67 - 90 x47 * x69 + 96 x48 * x56 + 56 x48 * x57
   + 32 x48 * x62 - 64 x48 * x64 + 68 x49 * x50 - 42 x49 * x51
   - 70 x49 * x53 + 50 x49 * x54 + 40 x49 * x57 + 72 x49 * x58
   - 74 x49 * x59 - 8 x49 * x62 + 16 x49 * x69 - 43 x50 ^2 - 36 x50 * x51
   - 40 x50 * x53 + 64 x50 * x68 + 33 x51 ^2 + 56 x51 * x52 - 12 x51 * x56
   - 24 x51 * x59 - 84 x51 * x64 + 4 x51 * x68 + 60 x52 * x58
   - 72 x52 * x59 - 78 x52 * x61 + 6 x52 * x62 - 44 x52 * x65
   + 94 x52 * x68 + 94 x53 * x59 + 64 x53 * x68 + 56 x54 * x66
   + 94 x55 * x58 + 70 x55 * x60 + 2 x55 * x61 + 24 x55 * x63
   + 90 x55 * x64 - 76 x55 * x66 - 58 x55 * x68 + 44 x56 * x59
   + 74 x56 * x66 + 22 x56 * x69 - 20 x57 * x62 + 82 x57 * x63
   + 60 x57 * x64 + 8 x57 * x65 + 2 x57 * x66 + 20 x57 * x68 + 78 x58 * x65
   - 50 x58 * x68 + 64 x58 * x69 + 60 x59 * x65 + 82 x59 * x66
   - 14 x59 * x67 + 21 x60 ^2 - 14 x60 * x63 + 56 x60 * x68 - 94 x61 * x69
   - 50 x62 * x69 - 8 x64 * x68 - 10 x66 * x68 - 40 x66 * x69
   + 36 x68 * x69 ] / 2 
Subject To
Bounds
 x0 <= 1
 x1 <= 1
 x2 <= 1
 x3 <= 1
 x4 <= 1
 x5 <= 1
 x6 <= 1
 x7 <= 1
 x8 <= 1
 x9 <= 1
 x10 <= 1
 x11 <= 1
 x12 <= 1
 x13 <= 1
 x14 <= 1
 x15 <= 1
 x16 <= 1
 x17 <= 1
 x18 <= 1
 x19 <= 1
 x20 <= 1
 x21 <= 1
 x22 <= 1
 x23 <= 1
 x24 <= 1
 x25 <= 1
 x26 <= 1
 x27 <= 1
 x28 <= 1
 x29 <= 1
 x30 <= 1
 x31 <= 1
 x32 <= 1
 x33 <= 1
 x34 <= 1
 x35 <= 1
 x36 <= 1
 x37 <= 1
 x38 <= 1
 x39 <= 1
 x40 <= 1
 x41 <= 1
 x42 <= 1
 x43 <= 1
 x44 <= 1
 x45 <= 1
 x46 <= 1
 x47 <= 1
 x48 <= 1
 x49 <= 1
 x50 <= 1
 x51 <= 1
 x52 <= 1
 x53 <= 1
 x54 <= 1
 x55 <= 1
 x56 <= 1
 x57 <= 1
 x58 <= 1
 x59 <= 1
 x60 <= 1
 x61 <= 1
 x62 <= 1
 x63 <= 1
 x64 <= 1
 x65 <= 1
 x66 <= 1
 x67 <= 1
 x68 <= 1
 x69 <= 1
End
